NAME : Unnamed.367.tour
COMMENT : Length = 367
COMMENT : Found by LKH [Keld Helsgaun] Thu Oct 02 13:46:48 2014
TYPE : TOUR
DIMENSION : 17
TOUR_SECTION
1
3
8
4
5
11
10
17
2
6
7
12
13
15
14
16
9
-1
EOF
